language Essence 1.3

letting blksize_delta be
        function(1 --> 10, 2 --> 10, 3 --> 10, 4 --> 10, 5 --> 10, 6 --> 10, 7 --> 10, 8 --> 10, 9 --> 10, 10 --> 10,
                 11 --> 10, 12 --> 10, 13 --> 10, 14 --> 10, 15 --> 10, 16 --> 10, 17 --> 10, 18 --> 10, 19 --> 10,
                 20 --> 10, 21 --> 10, 22 --> 10, 23 --> 10, 24 --> 10, 25 --> 10, 26 --> 10, 27 --> 10, 28 --> 10,
                 29 --> 10, 30 --> 10, 31 --> 10, 32 --> 10, 33 --> 10, 34 --> 10, 35 --> 10, 36 --> 10, 37 --> 10,
                 38 --> 10, 39 --> 10, 40 --> 10, 41 --> 10, 42 --> 10, 43 --> 10, 44 --> 10, 45 --> 10, 46 --> 10,
                 47 --> 10, 48 --> 10, 49 --> 10, 50 --> 10, 51 --> 10, 52 --> 10, 53 --> 10, 54 --> 10)
letting maxcars be
        function(1 --> 8, 2 --> 8, 3 --> 8, 4 --> 8, 5 --> 10, 6 --> 8, 7 --> 8, 8 --> 8, 9 --> 8, 10 --> 8, 11 --> 8,
                 12 --> 8, 13 --> 8, 14 --> 8, 15 --> 10, 16 --> 8, 17 --> 8, 18 --> 8, 19 --> 8, 20 --> 8, 21 --> 8,
                 22 --> 8, 23 --> 8, 24 --> 8, 25 --> 8, 26 --> 8, 27 --> 8, 28 --> 8, 29 --> 8, 30 --> 8, 31 --> 8,
                 32 --> 8, 33 --> 8, 34 --> 8, 35 --> 8, 36 --> 8, 37 --> 10, 38 --> 8, 39 --> 8, 40 --> 8, 41 --> 8,
                 42 --> 8, 43 --> 10, 44 --> 8, 45 --> 8, 46 --> 10, 47 --> 8, 48 --> 8, 49 --> 8, 50 --> 8, 51 --> 8,
                 52 --> 10, 53 --> 8, 54 --> 8)
letting n_cars be 159
letting n_classes be 17
letting n_options be 54
letting quantity be
        function(1 --> 7, 2 --> 7, 3 --> 7, 4 --> 7, 5 --> 7, 6 --> 7, 7 --> 7, 8 --> 7, 9 --> 7, 10 --> 7, 11 --> 7,
                 12 --> 7, 13 --> 13, 14 --> 7, 15 --> 20, 16 --> 18, 17 --> 17)
letting usage be
        relation((1, 10), (1, 23), (1, 30), (1, 44), (1, 49), (1, 52), (1, 53), (2, 13), (2, 30), (2, 33), (2, 48),
                 (2, 54), (3, 42), (3, 50), (4, 2), (4, 20), (4, 24), (4, 33), (5, 3), (5, 14), (5, 23), (5, 28),
                 (5, 38), (5, 43), (5, 44), (5, 46), (5, 54), (6, 9), (6, 15), (6, 34), (6, 38), (6, 50), (7, 3),
                 (7, 14), (7, 19), (8, 29), (8, 30), (8, 33), (9, 16), (9, 25), (9, 28), (9, 41), (9, 43), (10, 5),
                 (10, 10), (10, 15), (10, 20), (10, 44), (11, 3), (11, 7), (11, 18), (11, 19), (11, 38), (11, 51),
                 (11, 52), (12, 1), (12, 4), (12, 23), (12, 32), (12, 53), (13, 5), (13, 15), (13, 19), (13, 30),
                 (13, 31), (13, 35), (13, 46), (13, 53), (14, 6), (14, 9), (14, 30), (14, 53), (15, 5), (15, 8),
                 (15, 11), (15, 12), (15, 17), (15, 21), (15, 26), (15, 27), (15, 36), (15, 37), (15, 40), (15, 43),
                 (15, 45), (16, 32), (16, 39), (16, 42), (16, 51), (17, 13), (17, 18), (17, 20), (17, 22), (17, 32),
                 (17, 34), (17, 47), (17, 50))
$ Visualisation for usage
$  1 10
$  1 23
$  1 30
$  1 44
$  1 49
$  1 52
$  1 53
$  2 13
$  2 30
$  2 33
$  2 48
$  2 54
$  3 42
$  3 50
$  4  2
$  4 20
$  4 24
$  4 33
$  5  3
$  5 14
$  5 23
$  5 28
$  5 38
$  5 43
$  5 44
$  5 46
$  5 54
$  6  9
$  6 15
$  6 34
$  6 38
$  6 50
$  7  3
$  7 14
$  7 19
$  8 29
$  8 30
$  8 33
$  9 16
$  9 25
$  9 28
$  9 41
$  9 43
$ 10  5
$ 10 10
$ 10 15
$ 10 20
$ 10 44
$ 11  3
$ 11  7
$ 11 18
$ 11 19
$ 11 38
$ 11 51
$ 11 52
$ 12  1
$ 12  4
$ 12 23
$ 12 32
$ 12 53
$ 13  5
$ 13 15
$ 13 19
$ 13 30
$ 13 31
$ 13 35
$ 13 46
$ 13 53
$ 14  6
$ 14  9
$ 14 30
$ 14 53
$ 15  5
$ 15  8
$ 15 11
$ 15 12
$ 15 17
$ 15 21
$ 15 26
$ 15 27
$ 15 36
$ 15 37
$ 15 40
$ 15 43
$ 15 45
$ 16 32
$ 16 39
$ 16 42
$ 16 51
$ 17 13
$ 17 18
$ 17 20
$ 17 22
$ 17 32
$ 17 34
$ 17 47
$ 17 50

